NAME profit_maximization
OBJSENSE MAX
ROWS
 N  OBJ
 G  Fraction_lower_bound_0
 L  Fraction_upper_bound_0
 E  R2      
 E  R3      
 E  R4      
 E  R5      
 E  R6      
 E  R7      
 E  R8      
 E  R9      
 G  Fraction_lower_bound_1
 L  Fraction_upper_bound_1
 E  R12     
 E  R13     
 E  R14     
 E  R15     
 E  R16     
 E  R17     
 E  R18     
 E  R19     
 G  Fraction_lower_bound_2
 L  Fraction_upper_bound_2
 E  R22     
 E  R23     
 E  R24     
 E  R25     
 E  R26     
 E  R27     
 E  R28     
 E  R29     
 G  Fraction_lower_bound_3
 L  Fraction_upper_bound_3
 E  R32     
 E  R33     
 E  R34     
 E  R35     
 E  R36     
 E  R37     
 E  R38     
 E  R39     
 G  Fraction_lower_bound_4
 L  Fraction_upper_bound_4
 E  R42     
 E  R43     
 E  R44     
 E  R45     
 E  R46     
 E  R47     
 E  R48     
 E  R49     
 G  Fraction_lower_bound_5
 L  Fraction_upper_bound_5
 E  R52     
 E  R53     
 E  R54     
 E  R55     
 E  R56     
 E  R57     
 E  R58     
 E  R59     
 G  Fraction_lower_bound_6
 L  Fraction_upper_bound_6
 E  R62     
 E  R63     
 E  R64     
 E  R65     
 E  R66     
 E  R67     
 E  R68     
 E  R69     
 G  Fraction_lower_bound_7
 L  Fraction_upper_bound_7
 E  R72     
 E  R73     
 E  R74     
 E  R75     
 E  R76     
 E  R77     
 E  R78     
 E  R79     
 G  Fraction_lower_bound_8
 L  Fraction_upper_bound_8
 E  R82     
 E  R83     
 E  R84     
 E  R85     
 E  R86     
 E  R87     
 E  R88     
 E  R89     
 G  Fraction_lower_bound_9
 L  Fraction_upper_bound_9
 E  R92     
 E  R93     
 E  R94     
 E  R95     
 E  R96     
 E  R97     
 E  R98     
 E  R99     
COLUMNS
    alphas[0]  R2        1.4560175885474552e-01
    alphas[0]  R12       -2.1254259408931137e-01
    alphas[0]  R22       -1.4164547099595661e+00
    alphas[0]  R32       1.5282218283962821e+00
    alphas[0]  R42       -1.2738674879153986e+00
    alphas[0]  R52       -1.2917513826366920e+00
    alphas[0]  R62       8.3452856286716437e-01
    alphas[0]  R72       1.2108388761392930e+00
    alphas[0]  R82       3.4923974126764168e-01
    alphas[0]  R92       1.2618540707583012e-01
    alphas[1]  R2        -3.7904398109954307e-01
    alphas[1]  R12       1.2179562815485503e+00
    alphas[1]  R22       -6.0373729878390481e-01
    alphas[1]  R32       -1.4926600561647403e+00
    alphas[1]  R42       1.3011913374018906e+00
    alphas[1]  R52       1.9058921556793559e-02
    alphas[1]  R62       -4.3146013826882004e-02
    alphas[1]  R72       3.4352790052084838e-02
    alphas[1]  R82       1.4017223543441504e+00
    alphas[1]  R92       -1.4556943350284002e+00
    alphas[2]  R2        -3.7163939942996316e-01
    alphas[2]  R12       4.3029285227384373e-01
    alphas[2]  R22       -4.5261591699182874e-01
    alphas[2]  R32       -9.2718277936739890e-01
    alphas[2]  R42       -1.2860479670323244e+00
    alphas[2]  R52       -8.9239757258685082e-01
    alphas[2]  R62       1.8830883035394776e+00
    alphas[2]  R72       0.737946662334014
    alphas[2]  R82       -4.7870720697266994e-01
    alphas[2]  R92       1.3572630242337027e+00
    alphas[3]  R2        1.0781210466013541e-03
    alphas[3]  R12       -8.5943437670132938e-01
    alphas[3]  R22       1.2563081002895213e+00
    alphas[3]  R32       -5.9597217847650075e-01
    alphas[3]  R42       1.5667470478737124e+00
    alphas[3]  R52       -1.1424510371781540e+00
    alphas[3]  R62       -2.0553640724142008e-01
    alphas[3]  R72       1.4612555029586543e+00
    alphas[3]  R82       -1.1233066279112287e+00
    alphas[3]  R92       -3.5868814465985088e-01
    alphas[4]  R2        -1
    alphas[4]  R12       -1
    alphas[4]  R22       -1
    alphas[4]  R32       -1
    alphas[4]  R42       -1
    alphas[4]  R52       -1
    alphas[4]  R62       -1
    alphas[4]  R72       -1
    alphas[4]  R82       -1
    alphas[4]  R92       -1
    Sold_0[0]  R6        1
    Sold_0[0]  R9        -700
    Sold_0[1]  R16       1
    Sold_0[1]  R19       -700
    Sold_0[2]  R26       1
    Sold_0[2]  R29       -700
    Sold_0[3]  R36       1
    Sold_0[3]  R39       -700
    Sold_0[4]  R46       1
    Sold_0[4]  R49       -700
    Sold_0[5]  R56       1
    Sold_0[5]  R59       -700
    Sold_0[6]  R66       1
    Sold_0[6]  R69       -700
    Sold_0[7]  R76       1
    Sold_0[7]  R79       -700
    Sold_0[8]  R86       1
    Sold_0[8]  R89       -700
    Sold_0[9]  R96       1
    Sold_0[9]  R99       -700
    Sold_1[0]  R8        1
    Sold_1[0]  R9        -700
    Sold_1[1]  R18       1
    Sold_1[1]  R19       -700
    Sold_1[2]  R28       1
    Sold_1[2]  R29       -700
    Sold_1[3]  R38       1
    Sold_1[3]  R39       -700
    Sold_1[4]  R48       1
    Sold_1[4]  R49       -700
    Sold_1[5]  R58       1
    Sold_1[5]  R59       -700
    Sold_1[6]  R68       1
    Sold_1[6]  R69       -700
    Sold_1[7]  R78       1
    Sold_1[7]  R79       -700
    Sold_1[8]  R88       1
    Sold_1[8]  R89       -700
    Sold_1[9]  R98       1
    Sold_1[9]  R99       -700
    Lost_0[0]  R9        700
    Lost_0[1]  R19       700
    Lost_0[2]  R29       700
    Lost_0[3]  R39       700
    Lost_0[4]  R49       700
    Lost_0[5]  R59       700
    Lost_0[6]  R69       700
    Lost_0[7]  R79       700
    Lost_0[8]  R89       700
    Lost_0[9]  R99       700
    Lost_1[0]  R9        700
    Lost_1[1]  R19       700
    Lost_1[2]  R29       700
    Lost_1[3]  R39       700
    Lost_1[4]  R49       700
    Lost_1[5]  R59       700
    Lost_1[6]  R69       700
    Lost_1[7]  R79       700
    Lost_1[8]  R89       700
    Lost_1[9]  R99       700
    Left_1[0]  R8        1
    Left_1[0]  R9        300
    Left_1[1]  R18       1
    Left_1[1]  R19       300
    Left_1[2]  R28       1
    Left_1[2]  R29       300
    Left_1[3]  R38       1
    Left_1[3]  R39       300
    Left_1[4]  R48       1
    Left_1[4]  R49       300
    Left_1[5]  R58       1
    Left_1[5]  R59       300
    Left_1[6]  R68       1
    Left_1[6]  R69       300
    Left_1[7]  R78       1
    Left_1[7]  R79       300
    Left_1[8]  R88       1
    Left_1[8]  R89       300
    Left_1[9]  R98       1
    Left_1[9]  R99       300
    f_var[0]  R2        1
    f_var[1]  R12       1
    f_var[2]  R22       1
    f_var[3]  R32       1
    f_var[4]  R42       1
    f_var[5]  R52       1
    f_var[6]  R62       1
    f_var[7]  R72       1
    f_var[8]  R82       1
    f_var[9]  R92       1
    Fraction[0]  Fraction_lower_bound_0  1
    Fraction[0]  Fraction_upper_bound_0  1
    Fraction[0]  R3        -2.4191042647536697e+03
    Fraction[1]  Fraction_lower_bound_1  1
    Fraction[1]  Fraction_upper_bound_1  1
    Fraction[1]  R13       -2.4191042647536697e+03
    Fraction[2]  Fraction_lower_bound_2  1
    Fraction[2]  Fraction_upper_bound_2  1
    Fraction[2]  R23       -2.4191042647536697e+03
    Fraction[3]  Fraction_lower_bound_3  1
    Fraction[3]  Fraction_upper_bound_3  1
    Fraction[3]  R33       -2.4191042647536697e+03
    Fraction[4]  Fraction_lower_bound_4  1
    Fraction[4]  Fraction_upper_bound_4  1
    Fraction[4]  R43       -2.4191042647536697e+03
    Fraction[5]  Fraction_lower_bound_5  1
    Fraction[5]  Fraction_upper_bound_5  1
    Fraction[5]  R53       -2.4191042647536697e+03
    Fraction[6]  Fraction_lower_bound_6  1
    Fraction[6]  Fraction_upper_bound_6  1
    Fraction[6]  R63       -2.4191042647536697e+03
    Fraction[7]  Fraction_lower_bound_7  1
    Fraction[7]  Fraction_upper_bound_7  1
    Fraction[7]  R73       -2.4191042647536697e+03
    Fraction[8]  Fraction_lower_bound_8  1
    Fraction[8]  Fraction_upper_bound_8  1
    Fraction[8]  R83       -2.4191042647536697e+03
    Fraction[9]  Fraction_lower_bound_9  1
    Fraction[9]  Fraction_upper_bound_9  1
    Fraction[9]  R93       -2.4191042647536697e+03
    Q0_var[0]  R3        1
    Q0_var[0]  R4        1
    Q0_var[0]  R5        1
    Q0_var[0]  R6        -1
    Q0_var[1]  R13       1
    Q0_var[1]  R14       1
    Q0_var[1]  R15       1
    Q0_var[1]  R16       -1
    Q0_var[2]  R23       1
    Q0_var[2]  R24       1
    Q0_var[2]  R25       1
    Q0_var[2]  R26       -1
    Q0_var[3]  R33       1
    Q0_var[3]  R34       1
    Q0_var[3]  R35       1
    Q0_var[3]  R36       -1
    Q0_var[4]  R43       1
    Q0_var[4]  R44       1
    Q0_var[4]  R45       1
    Q0_var[4]  R46       -1
    Q0_var[5]  R53       1
    Q0_var[5]  R54       1
    Q0_var[5]  R55       1
    Q0_var[5]  R56       -1
    Q0_var[6]  R63       1
    Q0_var[6]  R64       1
    Q0_var[6]  R65       1
    Q0_var[6]  R66       -1
    Q0_var[7]  R73       1
    Q0_var[7]  R74       1
    Q0_var[7]  R75       1
    Q0_var[7]  R76       -1
    Q0_var[8]  R83       1
    Q0_var[8]  R84       1
    Q0_var[8]  R85       1
    Q0_var[8]  R86       -1
    Q0_var[9]  R93       1
    Q0_var[9]  R94       1
    Q0_var[9]  R95       1
    Q0_var[9]  R96       -1
    Q1_var[0]  R6        -1
    Q1_var[1]  R16       -1
    Q1_var[2]  R26       -1
    Q1_var[3]  R36       -1
    Q1_var[4]  R46       -1
    Q1_var[5]  R56       -1
    Q1_var[6]  R66       -1
    Q1_var[7]  R76       -1
    Q1_var[8]  R86       -1
    Q1_var[9]  R96       -1
    profits_vars[0]  OBJ       1
    profits_vars[0]  R9        1
    profits_vars[1]  OBJ       1
    profits_vars[1]  R19       1
    profits_vars[2]  OBJ       1
    profits_vars[2]  R29       1
    profits_vars[3]  OBJ       1
    profits_vars[3]  R39       1
    profits_vars[4]  OBJ       1
    profits_vars[4]  R49       1
    profits_vars[5]  OBJ       1
    profits_vars[5]  R59       1
    profits_vars[6]  OBJ       1
    profits_vars[6]  R69       1
    profits_vars[7]  OBJ       1
    profits_vars[7]  R79       1
    profits_vars[8]  OBJ       1
    profits_vars[8]  R89       1
    profits_vars[9]  OBJ       1
    profits_vars[9]  R99       1
    Lost_0_expr_0  R4        1
    Q_hat_adjusted_0  R5        1
    total_stock_second_period_0  R6        1
    total_stock_second_period_0  R7        1
    total_stock_second_period_0  R8        -1
    Lost_1_expr_0  R7        1
    Lost_0_expr_1  R14       1
    Q_hat_adjusted_1  R15       1
    total_stock_second_period_1  R16       1
    total_stock_second_period_1  R17       1
    total_stock_second_period_1  R18       -1
    Lost_1_expr_1  R17       1
    Lost_0_expr_2  R24       1
    Q_hat_adjusted_2  R25       1
    total_stock_second_period_2  R26       1
    total_stock_second_period_2  R27       1
    total_stock_second_period_2  R28       -1
    Lost_1_expr_2  R27       1
    Lost_0_expr_3  R34       1
    Q_hat_adjusted_3  R35       1
    total_stock_second_period_3  R36       1
    total_stock_second_period_3  R37       1
    total_stock_second_period_3  R38       -1
    Lost_1_expr_3  R37       1
    Lost_0_expr_4  R44       1
    Q_hat_adjusted_4  R45       1
    total_stock_second_period_4  R46       1
    total_stock_second_period_4  R47       1
    total_stock_second_period_4  R48       -1
    Lost_1_expr_4  R47       1
    Lost_0_expr_5  R54       1
    Q_hat_adjusted_5  R55       1
    total_stock_second_period_5  R56       1
    total_stock_second_period_5  R57       1
    total_stock_second_period_5  R58       -1
    Lost_1_expr_5  R57       1
    Lost_0_expr_6  R64       1
    Q_hat_adjusted_6  R65       1
    total_stock_second_period_6  R66       1
    total_stock_second_period_6  R67       1
    total_stock_second_period_6  R68       -1
    Lost_1_expr_6  R67       1
    Lost_0_expr_7  R74       1
    Q_hat_adjusted_7  R75       1
    total_stock_second_period_7  R76       1
    total_stock_second_period_7  R77       1
    total_stock_second_period_7  R78       -1
    Lost_1_expr_7  R77       1
    Lost_0_expr_8  R84       1
    Q_hat_adjusted_8  R85       1
    total_stock_second_period_8  R86       1
    total_stock_second_period_8  R87       1
    total_stock_second_period_8  R88       -1
    Lost_1_expr_8  R87       1
    Lost_0_expr_9  R94       1
    Q_hat_adjusted_9  R95       1
    total_stock_second_period_9  R96       1
    total_stock_second_period_9  R97       1
    total_stock_second_period_9  R98       -1
    Lost_1_expr_9  R97       1
RHS
    RHS1      Fraction_upper_bound_0  1
    RHS1      R4        1.7583494874153077e+03
    RHS1      R5        2.2070643854701379e+03
    RHS1      R7        4.4871438657228180e+02
    RHS1      Fraction_upper_bound_1  1
    RHS1      R14       1.2550343339569495e+03
    RHS1      R15       1.5818061866785924e+03
    RHS1      R17       3.2677134133903445e+02
    RHS1      Fraction_upper_bound_2  1
    RHS1      R24       2.2187332645643392e+03
    RHS1      R25       2.6797615756632522e+03
    RHS1      R27       4.6102779973517397e+02
    RHS1      Fraction_upper_bound_3  1
    RHS1      R34       2.0750623909056640e+03
    RHS1      R35       2.6082540651367690e+03
    RHS1      R37       5.3319116296431457e+02
    RHS1      Fraction_upper_bound_4  1
    RHS1      R44       2.4132421437769826e+03
    RHS1      R45       3.0010034077235769e+03
    RHS1      R47       5.8776075250144288e+02
    RHS1      Fraction_upper_bound_5  1
    RHS1      R54       1.9716254931259266e+03
    RHS1      R55       2.4995276757077472e+03
    RHS1      R57       5.2790167119630553e+02
    RHS1      Fraction_upper_bound_6  1
    RHS1      R64       5.6941821275484949e+02
    RHS1      R65       6.7527576618844375e+02
    RHS1      R67       1.0585704204983629e+02
    RHS1      Fraction_upper_bound_7  1
    RHS1      R74       1.1671698596728331e+03
    RHS1      R75       1.4471594032968874e+03
    RHS1      R77       2.7998903223918194e+02
    RHS1      Fraction_upper_bound_8  1
    RHS1      R84       1.9465272793874178e+03
    RHS1      R85       2.4115230720076556e+03
    RHS1      R87       464.995281212029
    RHS1      Fraction_upper_bound_9  1
    RHS1      R94       6.6724450433696711e+02
    RHS1      R95       8.5305985435280047e+02
    RHS1      R97       1.8581483862208856e+02
BOUNDS
 FR BND1      alphas[0]
 FR BND1      alphas[1]
 FR BND1      alphas[2]
 FR BND1      alphas[3]
 FR BND1      alphas[4]
 FR BND1      f_var[0]
 FR BND1      f_var[1]
 FR BND1      f_var[2]
 FR BND1      f_var[3]
 FR BND1      f_var[4]
 FR BND1      f_var[5]
 FR BND1      f_var[6]
 FR BND1      f_var[7]
 FR BND1      f_var[8]
 FR BND1      f_var[9]
 UP BND1      Fraction[0]  1
 UP BND1      Fraction[1]  1
 UP BND1      Fraction[2]  1
 UP BND1      Fraction[3]  1
 UP BND1      Fraction[4]  1
 UP BND1      Fraction[5]  1
 UP BND1      Fraction[6]  1
 UP BND1      Fraction[7]  1
 UP BND1      Fraction[8]  1
 UP BND1      Fraction[9]  1
 UP BND1      Q0_var[0]  2.4201042647536697e+03
 UP BND1      Q0_var[1]  2.4201042647536697e+03
 UP BND1      Q0_var[2]  2.4201042647536697e+03
 UP BND1      Q0_var[3]  2.4201042647536697e+03
 UP BND1      Q0_var[4]  2.4201042647536697e+03
 UP BND1      Q0_var[5]  2.4201042647536697e+03
 UP BND1      Q0_var[6]  2.4201042647536697e+03
 UP BND1      Q0_var[7]  2.4201042647536697e+03
 UP BND1      Q0_var[8]  2.4201042647536697e+03
 UP BND1      Q0_var[9]  2.4201042647536697e+03
 FR BND1      profits_vars[0]
 FR BND1      profits_vars[1]
 FR BND1      profits_vars[2]
 FR BND1      profits_vars[3]
 FR BND1      profits_vars[4]
 FR BND1      profits_vars[5]
 FR BND1      profits_vars[6]
 FR BND1      profits_vars[7]
 FR BND1      profits_vars[8]
 FR BND1      profits_vars[9]
 FR BND1      Lost_0_expr_0
 FR BND1      Q_hat_adjusted_0
 FR BND1      Lost_1_expr_0
 FR BND1      Lost_0_expr_1
 FR BND1      Q_hat_adjusted_1
 FR BND1      Lost_1_expr_1
 FR BND1      Lost_0_expr_2
 FR BND1      Q_hat_adjusted_2
 FR BND1      Lost_1_expr_2
 FR BND1      Lost_0_expr_3
 FR BND1      Q_hat_adjusted_3
 FR BND1      Lost_1_expr_3
 FR BND1      Lost_0_expr_4
 FR BND1      Q_hat_adjusted_4
 FR BND1      Lost_1_expr_4
 FR BND1      Lost_0_expr_5
 FR BND1      Q_hat_adjusted_5
 FR BND1      Lost_1_expr_5
 FR BND1      Lost_0_expr_6
 FR BND1      Q_hat_adjusted_6
 FR BND1      Lost_1_expr_6
 FR BND1      Lost_0_expr_7
 FR BND1      Q_hat_adjusted_7
 FR BND1      Lost_1_expr_7
 FR BND1      Lost_0_expr_8
 FR BND1      Q_hat_adjusted_8
 FR BND1      Lost_1_expr_8
 FR BND1      Lost_0_expr_9
 FR BND1      Q_hat_adjusted_9
 FR BND1      Lost_1_expr_9
GENCONS
 LOGISTIC GC0
    Options  0  0.01  0.001  -1  -1
    f_var[0]  Fraction[0]
 MIN min_sales_constr_0
    Sold_0[0]
    Q0_var[0]
    1.7583494874153077e+03
 MAX max_lost_constr_0
    Lost_0[0]
    Lost_0_expr_0
    0
 MAX max_Q1_constr_0
    Q1_var[0]
    Q_hat_adjusted_0
    0
 MIN min_sales2_constr_0
    Sold_1[0]
    total_stock_second_period_0
    4.4871438657228180e+02
 MAX max_lost2_constr_0
    Lost_1[0]
    Lost_1_expr_0
    0
 LOGISTIC GC6
    Options  0  0.01  0.001  -1  -1
    f_var[1]  Fraction[1]
 MIN min_sales_constr_1
    Sold_0[1]
    Q0_var[1]
    1.2550343339569495e+03
 MAX max_lost_constr_1
    Lost_0[1]
    Lost_0_expr_1
    0
 MAX max_Q1_constr_1
    Q1_var[1]
    Q_hat_adjusted_1
    0
 MIN min_sales2_constr_1
    Sold_1[1]
    total_stock_second_period_1
    3.2677134133903445e+02
 MAX max_lost2_constr_1
    Lost_1[1]
    Lost_1_expr_1
    0
 LOGISTIC GC12
    Options  0  0.01  0.001  -1  -1
    f_var[2]  Fraction[2]
 MIN min_sales_constr_2
    Sold_0[2]
    Q0_var[2]
    2.2187332645643392e+03
 MAX max_lost_constr_2
    Lost_0[2]
    Lost_0_expr_2
    0
 MAX max_Q1_constr_2
    Q1_var[2]
    Q_hat_adjusted_2
    0
 MIN min_sales2_constr_2
    Sold_1[2]
    total_stock_second_period_2
    4.6102779973517397e+02
 MAX max_lost2_constr_2
    Lost_1[2]
    Lost_1_expr_2
    0
 LOGISTIC GC18
    Options  0  0.01  0.001  -1  -1
    f_var[3]  Fraction[3]
 MIN min_sales_constr_3
    Sold_0[3]
    Q0_var[3]
    2.0750623909056640e+03
 MAX max_lost_constr_3
    Lost_0[3]
    Lost_0_expr_3
    0
 MAX max_Q1_constr_3
    Q1_var[3]
    Q_hat_adjusted_3
    0
 MIN min_sales2_constr_3
    Sold_1[3]
    total_stock_second_period_3
    5.3319116296431457e+02
 MAX max_lost2_constr_3
    Lost_1[3]
    Lost_1_expr_3
    0
 LOGISTIC GC24
    Options  0  0.01  0.001  -1  -1
    f_var[4]  Fraction[4]
 MIN min_sales_constr_4
    Sold_0[4]
    Q0_var[4]
    2.4132421437769826e+03
 MAX max_lost_constr_4
    Lost_0[4]
    Lost_0_expr_4
    0
 MAX max_Q1_constr_4
    Q1_var[4]
    Q_hat_adjusted_4
    0
 MIN min_sales2_constr_4
    Sold_1[4]
    total_stock_second_period_4
    5.8776075250144288e+02
 MAX max_lost2_constr_4
    Lost_1[4]
    Lost_1_expr_4
    0
 LOGISTIC GC30
    Options  0  0.01  0.001  -1  -1
    f_var[5]  Fraction[5]
 MIN min_sales_constr_5
    Sold_0[5]
    Q0_var[5]
    1.9716254931259266e+03
 MAX max_lost_constr_5
    Lost_0[5]
    Lost_0_expr_5
    0
 MAX max_Q1_constr_5
    Q1_var[5]
    Q_hat_adjusted_5
    0
 MIN min_sales2_constr_5
    Sold_1[5]
    total_stock_second_period_5
    5.2790167119630553e+02
 MAX max_lost2_constr_5
    Lost_1[5]
    Lost_1_expr_5
    0
 LOGISTIC GC36
    Options  0  0.01  0.001  -1  -1
    f_var[6]  Fraction[6]
 MIN min_sales_constr_6
    Sold_0[6]
    Q0_var[6]
    5.6941821275484949e+02
 MAX max_lost_constr_6
    Lost_0[6]
    Lost_0_expr_6
    0
 MAX max_Q1_constr_6
    Q1_var[6]
    Q_hat_adjusted_6
    0
 MIN min_sales2_constr_6
    Sold_1[6]
    total_stock_second_period_6
    1.0585704204983629e+02
 MAX max_lost2_constr_6
    Lost_1[6]
    Lost_1_expr_6
    0
 LOGISTIC GC42
    Options  0  0.01  0.001  -1  -1
    f_var[7]  Fraction[7]
 MIN min_sales_constr_7
    Sold_0[7]
    Q0_var[7]
    1.1671698596728331e+03
 MAX max_lost_constr_7
    Lost_0[7]
    Lost_0_expr_7
    0
 MAX max_Q1_constr_7
    Q1_var[7]
    Q_hat_adjusted_7
    0
 MIN min_sales2_constr_7
    Sold_1[7]
    total_stock_second_period_7
    2.7998903223918194e+02
 MAX max_lost2_constr_7
    Lost_1[7]
    Lost_1_expr_7
    0
 LOGISTIC GC48
    Options  0  0.01  0.001  -1  -1
    f_var[8]  Fraction[8]
 MIN min_sales_constr_8
    Sold_0[8]
    Q0_var[8]
    1.9465272793874178e+03
 MAX max_lost_constr_8
    Lost_0[8]
    Lost_0_expr_8
    0
 MAX max_Q1_constr_8
    Q1_var[8]
    Q_hat_adjusted_8
    0
 MIN min_sales2_constr_8
    Sold_1[8]
    total_stock_second_period_8
    464.995281212029
 MAX max_lost2_constr_8
    Lost_1[8]
    Lost_1_expr_8
    0
 LOGISTIC GC54
    Options  0  0.01  0.001  -1  -1
    f_var[9]  Fraction[9]
 MIN min_sales_constr_9
    Sold_0[9]
    Q0_var[9]
    6.6724450433696711e+02
 MAX max_lost_constr_9
    Lost_0[9]
    Lost_0_expr_9
    0
 MAX max_Q1_constr_9
    Q1_var[9]
    Q_hat_adjusted_9
    0
 MIN min_sales2_constr_9
    Sold_1[9]
    total_stock_second_period_9
    1.8581483862208856e+02
 MAX max_lost2_constr_9
    Lost_1[9]
    Lost_1_expr_9
    0
ENDATA
